GLPSOL--GLPK LP/MIP Solver 5.0
Parameter(s) specified in the command line:
 --lp ../modeles/3_394.lp --log 3_394.log
Reading problem data from '../modeles/3_394.lp'...
1195 rows, 2370 columns, 8283 non-zeros
1182 integer variables, all of which are binary
3574 lines were read
GLPK Integer Optimizer 5.0
1195 rows, 2370 columns, 8283 non-zeros
1182 integer variables, all of which are binary
Preprocessing...
1170 constraint coefficient(s) were reduced
1195 rows, 2367 columns, 8280 non-zeros
1182 integer variables, all of which are binary
Scaling...
 A: min|aij| =  1.031e-04  max|aij| =  4.000e+00  ratio =  3.881e+04
GM: min|aij| =  7.125e-02  max|aij| =  1.404e+01  ratio =  1.970e+02
EQ: min|aij| =  5.076e-03  max|aij| =  1.000e+00  ratio =  1.970e+02
2N: min|aij| =  3.906e-03  max|aij| =  1.772e+00  ratio =  4.536e+02
Constructing initial basis...
Size of triangular part is 1195
Solving LP relaxation...
GLPK Simplex Optimizer 5.0
1195 rows, 2367 columns, 8280 non-zeros
      0: obj =   6.000000000e+00 inf =   1.450e+01 (7)
     68: obj =   4.577648074e-01 inf =   0.000e+00 (0)
*   237: obj =  -1.732020125e+00 inf =   8.706e-16 (0)
OPTIMAL LP SOLUTION FOUND
Integer optimization begins...
Long-step dual simplex will be used
+   237: mip =     not found yet >=              -inf        (1; 0)
+   432: >>>>>  -1.732020125e+00 >=  -1.732020125e+00 < 0.1% (196; 0)
+   432: mip =  -1.732020125e+00 >=     tree is empty   0.0% (0; 391)
INTEGER OPTIMAL SOLUTION FOUND
Time used:   0.3 secs
Memory used: 3.5 Mb (3639661 bytes)
